c Reduced graph for p06_0 generated by Cyril Grelier
p edge 16 38
v 1 240
v 2 240
v 3 230
v 4 230
v 5 124
v 6 124
v 7 85
v 8 85
v 9 50
v 10 50
v 11 25
v 12 25
v 13 5
v 14 5
v 15 5
v 16 5
e 1 4
e 1 7
e 1 9
e 1 15
e 2 3
e 2 8
e 2 10
e 2 16
e 3 8
e 3 9
e 3 11
e 3 13
e 4 7
e 4 10
e 4 12
e 4 14
e 5 7
e 5 12
e 5 13
e 5 16
e 6 8
e 6 11
e 6 14
e 6 15
e 7 13
e 7 16
e 8 14
e 8 15
e 9 11
e 9 13
e 9 15
e 10 12
e 10 14
e 10 16
e 11 13
e 12 14
e 13 16
e 14 15
